NAME : n80w100.004.649.tour
COMMENT : Length = 649
COMMENT : Found by LKH [Keld Helsgaun] Tue May  2 05:19:06 2017
TYPE : TOUR
DIMENSION : 81
TOUR_SECTION
1
61
23
63
35
9
11
30
3
55
49
14
32
78
46
52
42
45
17
34
57
74
19
13
21
36
62
54
76
67
29
12
16
25
7
4
77
2
68
69
40
28
41
5
80
15
18
22
56
51
64
53
50
66
60
75
71
65
26
10
39
43
37
31
38
8
70
33
59
6
73
20
79
48
27
81
44
58
47
72
24
-1
EOF
